
ASes= { 1, 2, 3, 4, 5, 6, 7, 8, 9, 10, 11 } ;


Objects= { 1, 2, 3, 4, 5, 6, 7, 8, 9, 10, 11, 12, 13, 14, 15, 16, 17, 18, 19, 20, 21, 22, 23, 24, 25, 26, 27, 28, 29, 30, 31, 32, 33, 34, 35, 36, 37, 38, 39, 40, 41, 42, 43, 44, 45, 46, 47, 48, 49, 50, 51, 52, 53, 54, 55, 56, 57, 58, 59, 60, 61, 62, 63, 64, 65, 66, 67, 68, 69, 70, 71, 72, 73, 74, 75, 76, 77, 78, 79, 80, 81, 82, 83, 84, 85, 86, 87, 88, 89, 90, 91, 92, 93, 94, 95, 96, 97, 98, 99, 100 } ;


QualityLevels= { 0, 1, 2, 3, 4, 5 } ;

Arcs = {<2,1,490000>, <1,2,490000>, <11,1,490000>, <1,11,490000>, <11,2,490000>, <2,11,490000>, <11,10,490000>, <10,11,490000>, <3,2,490000>, <2,3,490000>, <4,3,490000>, <3,4,490000>, <5,4,490000>, <4,5,490000>, <6,5,490000>, <5,6,490000>, <7,6,490000>, <6,7,490000>, <8,4,490000>, <4,8,490000>, <8,7,490000>, <7,8,490000>, <9,3,490000>, <3,9,490000>, <9,8,490000>, <8,9,490000>, <10,9,490000>, <9,10,490000>};


RatePerQuality= [ 0  300  700  1500  2500  3500 ] ;


CacheSpacePerQuality= [ 10000  11.25  26.25  56.25  93.75  131.25 ] ;


UtilityPerQuality= [ 0  0.2  0.4  0.6  0.8  1 ] ;


ObjectsPublishedByProducers=[ [ 0  0  0  0  0  0  0  1  0  0  0 ]  [ 0  0  0  0  0  0  0  1  0  0  0 ]  [ 0  0  0  0  0  0  0  1  0  0  0 ]  [ 0  0  0  0  0  0  0  1  0  0  0 ]  [ 0  0  0  0  0  0  0  1  0  0  0 ]  [ 0  0  0  0  0  0  0  1  0  0  0 ]  [ 0  0  0  0  0  0  0  1  0  0  0 ]  [ 0  0  0  0  0  0  0  1  0  0  0 ]  [ 0  0  0  0  0  0  0  1  0  0  0 ]  [ 0  0  0  0  0  0  0  1  0  0  0 ]  [ 0  0  0  0  0  0  0  1  0  0  0 ]  [ 0  0  0  0  0  0  0  1  0  0  0 ]  [ 0  0  0  0  0  0  0  1  0  0  0 ]  [ 0  0  0  0  0  0  0  1  0  0  0 ]  [ 0  0  0  0  0  0  0  1  0  0  0 ]  [ 0  0  0  0  0  0  0  1  0  0  0 ]  [ 0  0  0  0  0  0  0  1  0  0  0 ]  [ 0  0  0  0  0  0  0  1  0  0  0 ]  [ 0  0  0  0  0  0  0  1  0  0  0 ]  [ 0  0  0  0  0  0  0  1  0  0  0 ]  [ 0  0  0  0  0  0  0  1  0  0  0 ]  [ 0  0  0  0  0  0  0  1  0  0  0 ]  [ 0  0  0  0  0  0  0  1  0  0  0 ]  [ 0  0  0  0  0  0  0  1  0  0  0 ]  [ 0  0  0  0  0  0  0  1  0  0  0 ]  [ 0  0  0  0  0  0  0  1  0  0  0 ]  [ 0  0  0  0  0  0  0  1  0  0  0 ]  [ 0  0  0  0  0  0  0  1  0  0  0 ]  [ 0  0  0  0  0  0  0  1  0  0  0 ]  [ 0  0  0  0  0  0  0  1  0  0  0 ]  [ 0  0  0  0  0  0  0  1  0  0  0 ]  [ 0  0  0  0  0  0  0  1  0  0  0 ]  [ 0  0  0  0  0  0  0  1  0  0  0 ]  [ 0  0  0  0  0  0  0  1  0  0  0 ]  [ 0  0  0  0  0  0  0  1  0  0  0 ]  [ 0  0  0  0  0  0  0  1  0  0  0 ]  [ 0  0  0  0  0  0  0  1  0  0  0 ]  [ 0  0  0  0  0  0  0  1  0  0  0 ]  [ 0  0  0  0  0  0  0  1  0  0  0 ]  [ 0  0  0  0  0  0  0  1  0  0  0 ]  [ 0  0  0  0  0  0  0  1  0  0  0 ]  [ 0  0  0  0  0  0  0  1  0  0  0 ]  [ 0  0  0  0  0  0  0  1  0  0  0 ]  [ 0  0  0  0  0  0  0  1  0  0  0 ]  [ 0  0  0  0  0  0  0  1  0  0  0 ]  [ 0  0  0  0  0  0  0  1  0  0  0 ]  [ 0  0  0  0  0  0  0  1  0  0  0 ]  [ 0  0  0  0  0  0  0  1  0  0  0 ]  [ 0  0  0  0  0  0  0  1  0  0  0 ]  [ 0  0  0  0  0  0  0  1  0  0  0 ]  [ 0  0  0  0  0  0  0  1  0  0  0 ]  [ 0  0  0  0  0  0  0  1  0  0  0 ]  [ 0  0  0  0  0  0  0  1  0  0  0 ]  [ 0  0  0  0  0  0  0  1  0  0  0 ]  [ 0  0  0  0  0  0  0  1  0  0  0 ]  [ 0  0  0  0  0  0  0  1  0  0  0 ]  [ 0  0  0  0  0  0  0  1  0  0  0 ]  [ 0  0  0  0  0  0  0  1  0  0  0 ]  [ 0  0  0  0  0  0  0  1  0  0  0 ]  [ 0  0  0  0  0  0  0  1  0  0  0 ]  [ 0  0  0  0  0  0  0  1  0  0  0 ]  [ 0  0  0  0  0  0  0  1  0  0  0 ]  [ 0  0  0  0  0  0  0  1  0  0  0 ]  [ 0  0  0  0  0  0  0  1  0  0  0 ]  [ 0  0  0  0  0  0  0  1  0  0  0 ]  [ 0  0  0  0  0  0  0  1  0  0  0 ]  [ 0  0  0  0  0  0  0  1  0  0  0 ]  [ 0  0  0  0  0  0  0  1  0  0  0 ]  [ 0  0  0  0  0  0  0  1  0  0  0 ]  [ 0  0  0  0  0  0  0  1  0  0  0 ]  [ 0  0  0  0  0  0  0  1  0  0  0 ]  [ 0  0  0  0  0  0  0  1  0  0  0 ]  [ 0  0  0  0  0  0  0  1  0  0  0 ]  [ 0  0  0  0  0  0  0  1  0  0  0 ]  [ 0  0  0  0  0  0  0  1  0  0  0 ]  [ 0  0  0  0  0  0  0  1  0  0  0 ]  [ 0  0  0  0  0  0  0  1  0  0  0 ]  [ 0  0  0  0  0  0  0  1  0  0  0 ]  [ 0  0  0  0  0  0  0  1  0  0  0 ]  [ 0  0  0  0  0  0  0  1  0  0  0 ]  [ 0  0  0  0  0  0  0  1  0  0  0 ]  [ 0  0  0  0  0  0  0  1  0  0  0 ]  [ 0  0  0  0  0  0  0  1  0  0  0 ]  [ 0  0  0  0  0  0  0  1  0  0  0 ]  [ 0  0  0  0  0  0  0  1  0  0  0 ]  [ 0  0  0  0  0  0  0  1  0  0  0 ]  [ 0  0  0  0  0  0  0  1  0  0  0 ]  [ 0  0  0  0  0  0  0  1  0  0  0 ]  [ 0  0  0  0  0  0  0  1  0  0  0 ]  [ 0  0  0  0  0  0  0  1  0  0  0 ]  [ 0  0  0  0  0  0  0  1  0  0  0 ]  [ 0  0  0  0  0  0  0  1  0  0  0 ]  [ 0  0  0  0  0  0  0  1  0  0  0 ]  [ 0  0  0  0  0  0  0  1  0  0  0 ]  [ 0  0  0  0  0  0  0  1  0  0  0 ]  [ 0  0  0  0  0  0  0  1  0  0  0 ]  [ 0  0  0  0  0  0  0  1  0  0  0 ]  [ 0  0  0  0  0  0  0  1  0  0  0 ]  [ 0  0  0  0  0  0  0  1  0  0  0 ]  [ 0  0  0  0  0  0  0  1  0  0  0 ] ];

ObjRequests = {  <1,5,801>, <2,5,258>, <3,5,160>, <4,5,114>, <5,5,9>, <6,5,88>, <7,5,39>, <8,5,59>, <9,5,30>, <10,5,113>, <11,5,1>, <12,5,46>, <14,5,45>, <15,5,17>, <16,5,14>, <17,5,9>, <18,5,17>, <19,5,1>, <20,5,3>, <21,5,7>, <22,5,3>, <23,5,2>, <24,5,1>, <25,5,23>, <26,5,10>, <27,5,3>, <28,5,10>, <29,5,4>, <30,5,4>, <31,5,1>, <32,5,5>, <33,5,5>, <34,5,12>, <35,5,2>, <36,5,8>, <38,5,6>, <39,5,7>, <40,5,5>, <41,5,11>, <42,5,4>, <43,5,2>, <44,5,5>, <45,5,1>, <46,5,2>, <47,5,1>, <48,5,6>, <49,5,9>, <50,5,1>, <51,5,5>, <52,5,4>, <53,5,2>, <54,5,8>, <55,5,3>, <56,5,14>, <57,5,7>, <58,5,5>, <59,5,3>, <60,5,4>, <61,5,7>, <62,5,1>, <63,5,5>, <64,5,2>, <65,5,10>, <66,5,1>, <67,5,5>, <68,5,3>, <69,5,2>, <70,5,1>, <71,5,3>, <72,5,8>, <73,5,6>, <75,5,2>, <77,5,7>, <78,5,7>, <79,5,9>, <80,5,2>, <81,5,1>, <82,5,6>, <83,5,4>, <84,5,1>, <85,5,9>, <86,5,4>, <87,5,1>, <89,5,3>, <91,5,1>, <92,5,2>, <93,5,7>, <94,5,6>, <95,5,1>, <96,5,2>, <97,5,1>, <98,5,7>, <99,5,3>, <100,5,6>, <1,6,88>, <2,6,51>, <3,6,3>, <4,6,22>, <5,6,177>, <6,6,157>, <7,6,23>, <8,6,11>, <9,6,51>, <10,6,26>, <11,6,7>, <12,6,73>, <13,6,53>, <14,6,2>, <15,6,33>, <16,6,67>, <17,6,18>, <18,6,28>, <19,6,6>, <20,6,16>, <21,6,10>, <22,6,7>, <23,6,41>, <24,6,45>, <25,6,3>, <26,6,7>, <27,6,20>, <28,6,12>, <29,6,1>, <30,6,10>, <31,6,27>, <32,6,25>, <33,6,2>, <34,6,17>, <35,6,6>, <36,6,20>, <37,6,22>, <39,6,1>, <40,6,15>, <41,6,10>, <43,6,24>, <44,6,4>, <45,6,9>, <46,6,25>, <47,6,17>, <48,6,10>, <49,6,1>, <50,6,14>, <51,6,3>, <52,6,14>, <53,6,11>, <54,6,11>, <55,6,18>, <56,6,1>, <57,6,1>, <58,6,4>, <59,6,4>, <60,6,5>, <61,6,4>, <62,6,4>, <64,6,9>, <65,6,5>, <66,6,2>, <67,6,12>, <68,6,2>, <69,6,5>, <70,6,5>, <71,6,2>, <72,6,1>, <73,6,2>, <74,6,2>, <75,6,1>, <76,6,5>, <77,6,12>, <78,6,1>, <79,6,11>, <81,6,9>, <82,6,1>, <83,6,8>, <84,6,5>, <85,6,2>, <86,6,2>, <87,6,4>, <88,6,1>, <89,6,4>, <90,6,2>, <91,6,2>, <92,6,4>, <93,6,1>, <94,6,11>, <95,6,2>, <96,6,10>, <97,6,2>, <98,6,3>, <99,6,1>, <100,6,3>, <1,7,116>, <2,7,54>, <3,7,22>, <4,7,8>, <5,7,73>, <7,7,17>, <8,7,3>, <9,7,4>, <10,7,21>, <11,7,3>, <13,7,8>, <14,7,13>, <15,7,7>, <16,7,11>, <17,7,28>, <18,7,9>, <19,7,46>, <20,7,11>, <21,7,13>, <22,7,15>, <23,7,10>, <24,7,5>, <25,7,4>, <26,7,1>, <27,7,5>, <28,7,5>, <29,7,5>, <31,7,6>, <32,7,2>, <33,7,16>, <35,7,3>, <36,7,1>, <37,7,3>, <38,7,2>, <39,7,2>, <41,7,6>, <42,7,6>, <43,7,4>, <44,7,22>, <45,7,4>, <46,7,4>, <47,7,6>, <48,7,5>, <49,7,8>, <50,7,9>, <51,7,2>, <52,7,1>, <53,7,10>, <54,7,2>, <56,7,10>, <57,7,7>, <58,7,8>, <59,7,12>, <60,7,4>, <61,7,8>, <62,7,4>, <64,7,3>, <65,7,6>, <66,7,9>, <67,7,2>, <68,7,1>, <69,7,14>, <70,7,7>, <71,7,8>, <72,7,4>, <73,7,2>, <74,7,11>, <75,7,2>, <76,7,3>, <77,7,2>, <78,7,1>, <80,7,6>, <81,7,4>, <82,7,4>, <83,7,3>, <84,7,7>, <85,7,2>, <86,7,10>, <87,7,6>, <88,7,12>, <90,7,10>, <91,7,2>, <92,7,7>, <93,7,1>, <94,7,1>, <95,7,1>, <96,7,3>, <97,7,7>, <98,7,1>, <99,7,2>, <100,7,1>, <1,1,223>, <2,1,316>, <3,1,77>, <4,1,53>, <5,1,60>, <6,1,13>, <7,1,52>, <8,1,6>, <9,1,31>, <10,1,10>, <11,1,4>, <12,1,3>, <13,1,28>, <14,1,25>, <15,1,34>, <16,1,4>, <17,1,15>, <19,1,13>, <20,1,48>, <21,1,4>, <22,1,4>, <23,1,10>, <24,1,6>, <25,1,19>, <26,1,4>, <27,1,23>, <28,1,24>, <29,1,17>, <30,1,12>, <31,1,15>, <32,1,19>, <33,1,17>, <34,1,16>, <35,1,17>, <36,1,13>, <37,1,13>, <38,1,6>, <39,1,3>, <40,1,1>, <41,1,4>, <42,1,4>, <43,1,7>, <44,1,4>, <45,1,2>, <46,1,6>, <47,1,10>, <48,1,2>, <49,1,14>, <50,1,5>, <51,1,7>, <52,1,1>, <53,1,1>, <54,1,1>, <55,1,2>, <56,1,2>, <57,1,7>, <58,1,16>, <59,1,3>, <60,1,5>, <61,1,1>, <62,1,8>, <63,1,5>, <64,1,3>, <65,1,4>, <66,1,1>, <67,1,1>, <68,1,11>, <69,1,2>, <71,1,4>, <72,1,8>, <73,1,9>, <74,1,4>, <75,1,5>, <76,1,1>, <77,1,3>, <78,1,2>, <79,1,2>, <80,1,2>, <81,1,1>, <82,1,4>, <83,1,6>, <84,1,1>, <85,1,5>, <86,1,3>, <87,1,1>, <89,1,2>, <90,1,4>, <91,1,8>, <92,1,1>, <93,1,4>, <94,1,1>, <95,1,4>, <96,1,1>, <97,1,1>, <99,1,6>, <100,1,8>, <1,10,331>, <2,10,56>, <3,10,276>, <4,10,205>, <5,10,13>, <6,10,26>, <7,10,91>, <8,10,138>, <9,10,57>, <10,10,6>, <11,10,140>, <12,10,1>, <13,10,34>, <14,10,5>, <15,10,20>, <16,10,4>, <17,10,33>, <18,10,23>, <19,10,8>, <20,10,10>, <21,10,52>, <22,10,28>, <23,10,14>, <24,10,22>, <25,10,11>, <26,10,31>, <27,10,11>, <28,10,4>, <29,10,33>, <30,10,24>, <31,10,7>, <32,10,1>, <33,10,6>, <34,10,7>, <35,10,8>, <36,10,2>, <37,10,5>, <38,10,27>, <39,10,29>, <40,10,18>, <41,10,17>, <42,10,23>, <43,10,8>, <45,10,21>, <46,10,5>, <47,10,4>, <48,10,2>, <49,10,1>, <50,10,6>, <51,10,12>, <52,10,3>, <53,10,2>, <54,10,2>, <55,10,4>, <57,10,3>, <58,10,5>, <60,10,3>, <61,10,11>, <62,10,1>, <63,10,7>, <64,10,11>, <65,10,1>, <66,10,9>, <67,10,3>, <68,10,10>, <69,10,2>, <70,10,1>, <71,10,8>, <72,10,1>, <73,10,1>, <74,10,1>, <75,10,9>, <76,10,12>, <77,10,2>, <78,10,5>, <79,10,1>, <80,10,2>, <81,10,1>, <82,10,3>, <84,10,2>, <85,10,1>, <86,10,2>, <89,10,3>, <91,10,2>, <93,10,1>, <94,10,1>, <96,10,1>, <97,10,3>, <98,10,5>, <99,10,1>, <100,10,3> };

MaxCacheStorageAtSingleAS= [ 131.25  131.25  131.25  131.25  131.25  131.25  131.25  131.25  131.25  131.25  131.25 ] ;

MaxCacheStorage = 1443.75 ;
SolutionGap = 0.01 ;
